263 5
10 10 10 10 10 

0 0 0 0 0 0 5 2 14 26 38 50 
0 0 0 0 0 0 2 3 4 
9 0 0 0 1 0 3 12 7 5 
5 0 0 0 4 0 3 10 8 6 
10 0 0 0 4 0 3 11 10 9 
6 0 0 0 2 0 2 11 9 
7 0 0 0 2 0 2 10 9 
5 0 0 0 4 0 1 9 
10 0 0 0 3 0 1 13 
2 0 0 0 1 0 1 13 
5 0 0 0 3 0 1 13 
10 0 0 0 1 0 1 13 
0 0 0 0 0 0 1 62 
0 0 0 0 0 0 4 15 16 18 24 
1 0 0 0 0 1 3 23 19 17 
10 0 0 0 0 3 3 21 20 19 
7 0 0 0 0 3 2 22 20 
1 0 0 0 0 4 2 21 19 
1 0 0 0 0 4 1 25 
8 0 0 0 0 2 1 25 
7 0 0 0 0 2 1 25 
2 0 0 0 0 1 1 25 
2 0 0 0 0 2 1 25 
5 0 0 0 0 3 1 25 
0 0 0 0 0 0 1 62 
0 0 0 0 0 0 4 27 30 31 32 
1 0 0 0 1 0 3 36 29 28 
9 0 0 0 5 0 3 35 34 33 
1 0 0 0 3 0 2 35 33 
3 0 0 0 3 0 2 34 33 
9 0 0 0 4 0 2 34 33 
1 0 0 0 3 0 1 33 
10 0 0 0 1 0 1 37 
10 0 0 0 1 0 1 37 
5 0 0 0 3 0 1 37 
5 0 0 0 1 0 1 37 
0 0 0 0 0 0 1 62 
0 0 0 0 0 0 4 39 40 41 48 
4 0 0 0 0 1 5 47 46 45 43 42 
9 0 0 0 0 4 3 46 44 43 
7 0 0 0 0 5 2 45 43 
3 0 0 0 0 2 1 44 
7 0 0 0 0 2 1 49 
5 0 0 0 0 1 1 49 
10 0 0 0 0 2 1 49 
6 0 0 0 0 3 1 49 
9 0 0 0 0 4 1 49 
6 0 0 0 0 1 1 49 
0 0 0 0 0 0 1 62 
0 0 0 0 0 0 5 51 52 53 55 60 
7 1 0 0 0 0 2 59 57 
6 3 0 0 0 0 2 57 56 
10 2 0 0 0 0 1 54 
3 4 0 0 0 0 1 58 
6 2 0 0 0 0 1 56 
10 3 0 0 0 0 1 61 
7 2 0 0 0 0 1 61 
4 3 0 0 0 0 1 61 
7 2 0 0 0 0 1 61 
4 3 0 0 0 0 1 61 
0 0 0 0 0 0 1 62 
0 0 0 0 0 0 5 63 75 87 99 111 
0 0 0 0 0 0 4 64 65 66 67 
6 0 0 1 0 0 3 70 69 68 
6 0 0 3 0 0 3 70 69 68 
5 0 0 2 0 0 2 69 68 
3 0 0 4 0 0 2 73 70 
5 0 0 3 0 0 2 73 72 
10 0 0 6 0 0 2 72 71 
9 0 0 1 0 0 1 71 
6 0 0 1 0 0 1 74 
4 0 0 2 0 0 1 74 
7 0 0 2 0 0 1 74 
0 0 0 0 0 0 1 123 
0 0 0 0 0 0 5 76 77 82 84 85 
8 0 1 0 0 0 3 81 80 79 
10 0 4 0 0 0 1 78 
5 0 3 0 0 0 1 83 
9 0 1 0 0 0 1 83 
7 0 1 0 0 0 1 83 
1 0 4 0 0 0 1 83 
5 0 2 0 0 0 1 83 
3 0 3 0 0 0 1 86 
1 0 2 0 0 0 1 86 
6 0 4 0 0 0 1 86 
0 0 0 0 0 0 1 123 
0 0 0 0 0 0 5 88 89 90 94 97 
4 0 1 0 0 0 3 93 92 91 
5 0 1 0 0 0 2 92 91 
2 0 2 0 0 0 2 95 92 
4 0 1 0 0 0 2 96 95 
1 0 4 0 0 0 1 96 
2 0 3 0 0 0 1 95 
9 0 3 0 0 0 1 95 
2 0 2 0 0 0 1 98 
9 0 3 0 0 0 1 98 
1 0 5 0 0 0 1 98 
0 0 0 0 0 0 1 123 
0 0 0 0 0 0 4 100 101 102 104 
3 0 0 0 0 1 5 109 108 107 105 103 
4 0 0 0 0 2 2 107 105 
6 0 0 0 0 2 1 103 
8 0 0 0 0 2 1 106 
4 0 0 0 0 3 1 105 
3 0 0 0 0 3 1 110 
2 0 0 0 0 3 1 110 
6 0 0 0 0 1 1 110 
5 0 0 0 0 4 1 110 
10 0 0 0 0 4 1 110 
0 0 0 0 0 0 1 123 
0 0 0 0 0 0 4 112 113 114 116 
9 0 0 1 0 0 4 121 120 119 115 
10 0 0 4 0 0 5 121 120 119 118 117 
7 0 0 4 0 0 2 120 115 
8 0 0 3 0 0 2 118 117 
2 0 0 3 0 0 2 119 117 
9 0 0 2 0 0 1 122 
4 0 0 2 0 0 1 122 
6 0 0 1 0 0 1 122 
9 0 0 4 0 0 1 122 
2 0 0 1 0 0 1 122 
0 0 0 0 0 0 1 123 
0 0 0 0 0 0 4 124 146 168 180 
0 0 0 0 0 0 6 125 127 129 131 133 137 
4 1 1 0 0 0 2 134 126 
7 2 1 0 0 0 4 143 140 136 128 
2 6 2 0 0 0 3 143 134 128 
5 2 3 0 0 0 3 144 138 132 
6 3 2 0 0 0 2 135 130 
8 3 2 0 0 0 3 140 139 136 
3 1 2 0 0 0 2 143 134 
9 4 2 0 0 0 3 142 141 139 
9 1 3 0 0 0 2 139 138 
4 1 2 0 0 0 1 135 
3 4 2 0 0 0 1 138 
1 4 6 0 0 0 1 138 
9 3 1 0 0 0 1 140 
9 2 4 0 0 0 1 145 
2 3 2 0 0 0 1 145 
3 2 4 0 0 0 1 145 
1 2 3 0 0 0 1 145 
2 2 3 0 0 0 1 145 
6 2 3 0 0 0 1 145 
4 2 2 0 0 0 1 145 
0 0 0 0 0 0 1 238 
0 0 0 0 0 0 9 147 148 149 150 151 152 153 157 158 
5 1 0 0 0 1 5 166 165 160 156 154 
1 3 0 0 0 3 4 166 165 163 155 
3 4 0 0 0 4 4 165 160 156 154 
2 3 0 0 0 5 4 165 164 160 156 
7 1 0 0 0 2 3 160 156 154 
8 2 0 0 0 1 3 165 160 156 
1 2 0 0 0 4 4 164 162 161 160 
8 3 0 0 0 4 3 164 163 159 
6 3 0 0 0 2 2 164 156 
2 5 0 0 0 2 1 159 
8 1 0 0 0 1 1 159 
8 5 0 0 0 4 1 159 
9 1 0 0 0 4 2 162 161 
9 1 0 0 0 3 1 163 
6 2 0 0 0 1 1 167 
1 2 0 0 0 2 1 167 
9 2 0 0 0 1 1 167 
9 3 0 0 0 2 1 167 
8 4 0 0 0 3 1 167 
5 2 0 0 0 1 1 167 
0 0 0 0 0 0 1 238 
0 0 0 0 0 0 4 169 170 172 173 
8 1 0 0 0 0 2 178 171 
3 3 0 0 0 0 4 178 177 175 174 
3 2 0 0 0 0 3 176 175 174 
7 5 0 0 0 0 3 177 175 174 
10 2 0 0 0 0 1 176 
4 1 0 0 0 0 1 179 
2 2 0 0 0 0 1 179 
7 5 0 0 0 0 1 179 
2 3 0 0 0 0 1 179 
1 1 0 0 0 0 1 179 
0 0 0 0 0 0 3 202 214 226 
0 0 0 0 0 0 9 181 182 183 184 185 186 188 190 192 
7 0 0 0 1 1 3 195 193 189 
1 0 0 0 1 4 3 195 193 189 
2 0 0 0 2 4 2 193 187 
3 0 0 0 1 2 2 193 187 
9 0 0 0 1 2 3 195 193 191 
9 0 0 0 1 2 1 187 
6 0 0 0 5 2 2 195 191 
1 0 0 0 2 2 2 195 191 
2 0 0 0 2 2 2 197 191 
10 0 0 0 4 4 2 197 191 
8 0 0 0 3 1 3 200 198 194 
7 0 0 0 2 4 3 198 197 194 
8 0 0 0 3 4 3 198 197 196 
9 0 0 0 3 1 2 199 196 
10 0 0 0 1 3 1 197 
6 0 0 0 3 3 1 201 
1 0 0 0 5 1 1 201 
10 0 0 0 2 3 1 201 
2 0 0 0 4 3 1 201 
5 0 0 0 4 2 1 201 
0 0 0 0 0 0 1 238 
0 0 0 0 0 0 5 203 204 205 207 208 
5 1 0 0 0 0 3 211 210 206 
1 4 0 0 0 0 3 211 210 209 
6 5 0 0 0 0 2 211 209 
10 3 0 0 0 0 1 209 
1 1 0 0 0 0 1 212 
9 3 0 0 0 0 1 210 
7 2 0 0 0 0 1 213 
2 2 0 0 0 0 1 213 
1 2 0 0 0 0 1 213 
10 2 0 0 0 0 1 213 
0 0 0 0 0 0 1 238 
0 0 0 0 0 0 3 215 217 224 
8 0 0 1 0 0 4 223 222 221 216 
2 0 0 1 0 0 3 220 219 218 
1 0 0 6 0 0 1 218 
6 0 0 3 0 0 1 225 
9 0 0 2 0 0 1 225 
2 0 0 2 0 0 1 225 
2 0 0 2 0 0 1 225 
3 0 0 4 0 0 1 225 
9 0 0 2 0 0 1 225 
6 0 0 2 0 0 1 225 
0 0 0 0 0 0 1 238 
0 0 0 0 0 0 4 227 228 229 236 
2 1 0 0 0 0 4 235 232 231 230 
8 1 0 0 0 0 3 235 232 230 
4 2 0 0 0 0 3 235 231 230 
8 5 0 0 0 0 2 234 233 
7 2 0 0 0 0 1 234 
1 3 0 0 0 0 1 233 
10 3 0 0 0 0 1 237 
7 2 0 0 0 0 1 237 
9 3 0 0 0 0 1 237 
6 3 0 0 0 0 1 237 
0 0 0 0 0 0 1 238 
0 0 0 0 0 0 2 239 251 
0 0 0 0 0 0 4 240 241 242 249 
10 1 0 0 0 0 4 248 247 246 244 
8 4 0 0 0 0 3 247 246 245 
5 3 0 0 0 0 1 243 
9 2 0 0 0 0 2 246 245 
8 4 0 0 0 0 1 245 
7 1 0 0 0 0 1 250 
5 2 0 0 0 0 1 250 
10 2 0 0 0 0 1 250 
1 5 0 0 0 0 1 250 
2 1 0 0 0 0 1 250 
0 0 0 0 0 0 1 263 
0 0 0 0 0 0 5 252 254 255 260 261 
8 0 0 1 0 0 2 259 253 
10 0 0 2 0 0 2 258 257 
4 0 0 4 0 0 1 256 
8 0 0 4 0 0 1 256 
6 0 0 3 0 0 1 262 
10 0 0 2 0 0 1 262 
5 0 0 1 0 0 1 262 
8 0 0 3 0 0 1 262 
4 0 0 4 0 0 1 262 
7 0 0 1 0 0 1 262 
0 0 0 0 0 0 1 263 
0 0 0 0 0 0 0 
